; DUP1 SLOAD PUSH cw_2 PUSH cw_3 SWAP1 SWAP2 => PUSH cw_2 PUSH cw_3 DUP3 SLOAD
(set-option :produce-proofs true)
; 
(set-info :status unknown)
(declare-fun storage_t ((_ BitVec 256) (_ BitVec 256) (_ BitVec 256) (_ BitVec 256) Int (_ BitVec 256)) (_ BitVec 256))
(declare-fun w_3 () (_ BitVec 256))
(declare-fun w_2 () (_ BitVec 256))
(declare-fun storage_s ((_ BitVec 256) (_ BitVec 256) (_ BitVec 256) (_ BitVec 256) Int (_ BitVec 256)) (_ BitVec 256))
(declare-fun exc_halt_t (Int) Bool)
(declare-fun exc_halt_s (Int) Bool)
(declare-fun sc_t (Int) (_ BitVec 6))
(declare-fun stack_t ((_ BitVec 256) (_ BitVec 256) (_ BitVec 256) (_ BitVec 256) Int (_ BitVec 6)) (_ BitVec 256))
(declare-fun stack_s ((_ BitVec 256) (_ BitVec 256) (_ BitVec 256) (_ BitVec 256) Int (_ BitVec 6)) (_ BitVec 256))
(declare-fun sc_s (Int) (_ BitVec 6))
(declare-fun used_gas_t ((_ BitVec 256) (_ BitVec 256) (_ BitVec 256) (_ BitVec 256) Int) Int)
(declare-fun used_gas_s ((_ BitVec 256) (_ BitVec 256) (_ BitVec 256) (_ BitVec 256) Int) Int)
(assert
 (exists ((x_0 (_ BitVec 256)) (x_SLOAD_0 (_ BitVec 256)) )(let (($x4350 (forall ((w (_ BitVec 256)) )(let ((?x4986 (storage_t x_0 x_SLOAD_0 w_2 w_3 4 w)))
 (let ((?x226 (storage_s x_0 x_SLOAD_0 w_2 w_3 6 w)))
 (= ?x226 ?x4986))))
 ))
 (let (($x7854 (exc_halt_t 4)))
 (let (($x772 (exc_halt_s 6)))
 (let (($x4404 (= $x772 $x7854)))
 (let (($x3839 (forall ((n (_ BitVec 6)) )(let ((?x4818 (sc_t 4)))
 (let (($x11294 (bvsle ?x4818 n)))
 (let ((?x7917 (stack_t x_0 x_SLOAD_0 w_2 w_3 4 n)))
 (let ((?x8529 (stack_s x_0 x_SLOAD_0 w_2 w_3 6 n)))
 (let (($x8662 (= ?x8529 ?x7917)))
 (or $x8662 $x11294)))))))
 ))
 (let ((?x4818 (sc_t 4)))
 (let ((?x926 (sc_s 6)))
 (let (($x7899 (= ?x926 ?x4818)))
 (let ((?x3774 (used_gas_t x_0 x_SLOAD_0 w_2 w_3 0)))
 (let ((?x4600 (used_gas_s x_0 x_SLOAD_0 w_2 w_3 0)))
 (let (($x2590 (= ?x4600 ?x3774)))
 (let (($x2169 (forall ((w (_ BitVec 256)) )(let ((?x9384 (storage_t x_0 x_SLOAD_0 w_2 w_3 0 w)))
 (let ((?x6809 (storage_s x_0 x_SLOAD_0 w_2 w_3 0 w)))
 (= ?x6809 ?x9384))))
 ))
 (let (($x56 (exc_halt_t 0)))
 (let (($x57 (exc_halt_s 0)))
 (let (($x58 (= $x57 $x56)))
 (let (($x4328 (forall ((n (_ BitVec 6)) )(let ((?x4766 (stack_t x_0 x_SLOAD_0 w_2 w_3 0 n)))
 (let ((?x5955 (stack_s x_0 x_SLOAD_0 w_2 w_3 0 n)))
 (let (($x3272 (= ?x5955 ?x4766)))
 (let ((?x63 (sc_t 0)))
 (let (($x2617 (bvsle ?x63 n)))
 (or $x2617 $x3272)))))))
 ))
 (let ((?x63 (sc_t 0)))
 (let ((?x72 (sc_s 0)))
 (let (($x73 (= ?x72 ?x63)))
 (let (($x584 (= $x7854 (or (exc_halt_t 3) (not (bvsle (_ bv0 6) (bvadd (_ bv63 6) (sc_t 3))))))))
 (let (($x7491 (forall ((w (_ BitVec 256)) )(let ((?x4715 (storage_t x_0 x_SLOAD_0 w_2 w_3 3 w)))
 (let ((?x4986 (storage_t x_0 x_SLOAD_0 w_2 w_3 4 w)))
 (= ?x4986 ?x4715))))
 ))
 (let (($x3133 (forall ((n (_ BitVec 6)) )(let ((?x11758 (stack_t x_0 x_SLOAD_0 w_2 w_3 3 n)))
 (let ((?x7917 (stack_t x_0 x_SLOAD_0 w_2 w_3 4 n)))
 (let ((?x6438 (sc_t 3)))
 (let ((?x11118 (bvadd (_ bv63 6) ?x6438)))
 (let (($x2810 (bvsle ?x11118 n)))
 (or $x2810 (= ?x7917 ?x11758))))))))
 ))
 (let ((?x6438 (sc_t 3)))
 (let (($x5079 (= ?x4818 ?x6438)))
 (let (($x4628 (= (used_gas_t x_0 x_SLOAD_0 w_2 w_3 4) (+ 200 (used_gas_t x_0 x_SLOAD_0 w_2 w_3 3)))))
 (let ((?x11118 (bvadd (_ bv63 6) ?x6438)))
 (let ((?x1509 (stack_t x_0 x_SLOAD_0 w_2 w_3 3 ?x11118)))
 (let (($x8707 (= (stack_t x_0 x_SLOAD_0 w_2 w_3 4 (bvadd (_ bv63 6) ?x4818)) (storage_t x_0 x_SLOAD_0 w_2 w_3 3 ?x1509))))
 (let (($x2163 (exc_halt_t 2)))
 (let (($x367 (not (= ((_ extract 6 6) (bvadd (_ bv1 7) (concat (_ bv0 1) (sc_t 2)))) (_ bv0 1)))))
 (let (($x6783 (exc_halt_t 3)))
 (let (($x630 (forall ((w (_ BitVec 256)) )(let ((?x3759 (storage_t x_0 x_SLOAD_0 w_2 w_3 2 w)))
 (let ((?x4715 (storage_t x_0 x_SLOAD_0 w_2 w_3 3 w)))
 (= ?x4715 ?x3759))))
 ))
 (let (($x2963 (forall ((n (_ BitVec 6)) )(let ((?x7500 (stack_t x_0 x_SLOAD_0 w_2 w_3 2 n)))
 (let ((?x11758 (stack_t x_0 x_SLOAD_0 w_2 w_3 3 n)))
 (or (= ?x11758 ?x7500) (bvsle (bvadd (_ bv61 6) (sc_t 2)) n)))))
 ))
 (let (($x1004 (= ?x6438 (bvadd (_ bv1 6) (sc_t 2)))))
 (let ((?x10348 (used_gas_t x_0 x_SLOAD_0 w_2 w_3 3)))
 (let (($x5636 (= (stack_t x_0 x_SLOAD_0 w_2 w_3 3 (bvadd (_ bv63 6) (sc_t 2))) (stack_t x_0 x_SLOAD_0 w_2 w_3 2 (bvadd (_ bv63 6) (sc_t 2))))))
 (let (($x7130 (= (stack_t x_0 x_SLOAD_0 w_2 w_3 3 (bvadd (_ bv62 6) (sc_t 2))) (stack_t x_0 x_SLOAD_0 w_2 w_3 2 (bvadd (_ bv62 6) (sc_t 2))))))
 (let ((?x2714 (sc_t 2)))
 (let ((?x530 (bvadd (_ bv61 6) ?x2714)))
 (let ((?x2392 (stack_t x_0 x_SLOAD_0 w_2 w_3 2 ?x530)))
 (let (($x9864 (not (= ((_ extract 6 6) (bvadd (_ bv1 7) (concat (_ bv0 1) (sc_t 1)))) (_ bv0 1)))))
 (let (($x8377 (exc_halt_t 1)))
 (let (($x5303 (= $x2163 (or $x8377 $x9864))))
 (let (($x592 (forall ((w (_ BitVec 256)) )(let ((?x7769 (storage_t x_0 x_SLOAD_0 w_2 w_3 1 w)))
 (let ((?x3759 (storage_t x_0 x_SLOAD_0 w_2 w_3 2 w)))
 (= ?x3759 ?x7769))))
 ))
 (let (($x516 (forall ((n (_ BitVec 6)) )(let ((?x7154 (sc_t 1)))
 (let (($x10921 (bvsle ?x7154 n)))
 (let ((?x11817 (stack_t x_0 x_SLOAD_0 w_2 w_3 1 n)))
 (let ((?x7500 (stack_t x_0 x_SLOAD_0 w_2 w_3 2 n)))
 (or (= ?x7500 ?x11817) $x10921))))))
 ))
 (let (($x3007 (= ?x2714 (bvadd (_ bv1 6) (sc_t 1)))))
 (let ((?x175 (used_gas_t x_0 x_SLOAD_0 w_2 w_3 2)))
 (let (($x10110 (= $x8377 (or $x56 (not (= ((_ extract 6 6) (bvadd (_ bv1 7) (concat (_ bv0 1) ?x63))) (_ bv0 1)))))))
 (let (($x9435 (forall ((w (_ BitVec 256)) )(let ((?x9384 (storage_t x_0 x_SLOAD_0 w_2 w_3 0 w)))
 (let ((?x7769 (storage_t x_0 x_SLOAD_0 w_2 w_3 1 w)))
 (= ?x7769 ?x9384))))
 ))
 (let (($x5219 (forall ((n (_ BitVec 6)) )(let ((?x4766 (stack_t x_0 x_SLOAD_0 w_2 w_3 0 n)))
 (let ((?x11817 (stack_t x_0 x_SLOAD_0 w_2 w_3 1 n)))
 (let ((?x63 (sc_t 0)))
 (let (($x2617 (bvsle ?x63 n)))
 (or $x2617 (= ?x11817 ?x4766)))))))
 ))
 (let ((?x7154 (sc_t 1)))
 (let (($x1385 (= ?x7154 (bvadd (_ bv1 6) ?x63))))
 (let (($x11630 (= $x772 (or (exc_halt_s 5) (not (bvsle (_ bv0 6) (bvadd (_ bv61 6) (sc_s 5))))))))
 (let (($x4323 (forall ((w (_ BitVec 256)) )(let ((?x5703 (storage_s x_0 x_SLOAD_0 w_2 w_3 5 w)))
 (let ((?x226 (storage_s x_0 x_SLOAD_0 w_2 w_3 6 w)))
 (= ?x226 ?x5703))))
 ))
 (let (($x7291 (forall ((n (_ BitVec 6)) )(let ((?x4319 (sc_s 5)))
 (let ((?x4177 (bvadd (_ bv61 6) ?x4319)))
 (let (($x11117 (bvsle ?x4177 n)))
 (let ((?x7978 (stack_s x_0 x_SLOAD_0 w_2 w_3 5 n)))
 (let ((?x8529 (stack_s x_0 x_SLOAD_0 w_2 w_3 6 n)))
 (or (= ?x8529 ?x7978) $x11117)))))))
 ))
 (let ((?x4319 (sc_s 5)))
 (let (($x8485 (= ?x926 ?x4319)))
 (let (($x7158 (= (used_gas_s x_0 x_SLOAD_0 w_2 w_3 6) (+ 3 (used_gas_s x_0 x_SLOAD_0 w_2 w_3 5)))))
 (let ((?x8101 (bvadd (_ bv62 6) ?x4319)))
 (let ((?x6680 (stack_s x_0 x_SLOAD_0 w_2 w_3 5 ?x8101)))
 (let ((?x11455 (bvadd (_ bv63 6) ?x4319)))
 (let ((?x1876 (stack_s x_0 x_SLOAD_0 w_2 w_3 5 ?x11455)))
 (let (($x11326 (= (stack_s x_0 x_SLOAD_0 w_2 w_3 6 (bvadd (_ bv63 6) ?x926)) (stack_s x_0 x_SLOAD_0 w_2 w_3 5 (bvadd (_ bv61 6) ?x4319)))))
 (let (($x11317 (exc_halt_s 5)))
 (let (($x7552 (= $x11317 (or (exc_halt_s 4) (not (bvsle (_ bv0 6) (bvadd (_ bv62 6) (sc_s 4))))))))
 (let (($x401 (forall ((w (_ BitVec 256)) )(let ((?x1959 (storage_s x_0 x_SLOAD_0 w_2 w_3 4 w)))
 (let ((?x5703 (storage_s x_0 x_SLOAD_0 w_2 w_3 5 w)))
 (= ?x5703 ?x1959))))
 ))
 (let (($x10745 (forall ((n (_ BitVec 6)) )(let ((?x9775 (stack_s x_0 x_SLOAD_0 w_2 w_3 4 n)))
 (let ((?x7978 (stack_s x_0 x_SLOAD_0 w_2 w_3 5 n)))
 (let ((?x4305 (sc_s 4)))
 (let ((?x403 (bvadd (_ bv62 6) ?x4305)))
 (let (($x6793 (bvsle ?x403 n)))
 (or $x6793 (= ?x7978 ?x9775))))))))
 ))
 (let ((?x4305 (sc_s 4)))
 (let (($x5658 (= ?x4319 ?x4305)))
 (let ((?x4583 (used_gas_s x_0 x_SLOAD_0 w_2 w_3 5)))
 (let (($x292 (exc_halt_s 3)))
 (let (($x4077 (or $x292 (not (= ((_ extract 6 6) (bvadd (_ bv1 7) (concat (_ bv0 1) (sc_s 3)))) (_ bv0 1))))))
 (let (($x7172 (exc_halt_s 4)))
 (let (($x6234 (= $x7172 $x4077)))
 (let (($x5236 (forall ((w (_ BitVec 256)) )(let ((?x2337 (storage_s x_0 x_SLOAD_0 w_2 w_3 3 w)))
 (let ((?x1959 (storage_s x_0 x_SLOAD_0 w_2 w_3 4 w)))
 (= ?x1959 ?x2337))))
 ))
 (let (($x4206 (forall ((n (_ BitVec 6)) )(let ((?x275 (sc_s 3)))
 (let (($x9133 (bvsle ?x275 n)))
 (let ((?x2330 (stack_s x_0 x_SLOAD_0 w_2 w_3 3 n)))
 (let ((?x9775 (stack_s x_0 x_SLOAD_0 w_2 w_3 4 n)))
 (or (= ?x9775 ?x2330) $x9133))))))
 ))
 (let (($x8307 (= ?x4305 (bvadd (_ bv1 6) (sc_s 3)))))
 (let ((?x1564 (used_gas_s x_0 x_SLOAD_0 w_2 w_3 4)))
 (let (($x4387 (not (= ((_ extract 6 6) (bvadd (_ bv1 7) (concat (_ bv0 1) (sc_s 2)))) (_ bv0 1)))))
 (let (($x247 (exc_halt_s 2)))
 (let (($x10157 (= $x292 (or $x247 $x4387))))
 (let (($x9717 (forall ((w (_ BitVec 256)) )(let ((?x7348 (storage_s x_0 x_SLOAD_0 w_2 w_3 2 w)))
 (let ((?x2337 (storage_s x_0 x_SLOAD_0 w_2 w_3 3 w)))
 (= ?x2337 ?x7348))))
 ))
 (let (($x10467 (forall ((n (_ BitVec 6)) )(let ((?x218 (sc_s 2)))
 (let (($x9956 (bvsle ?x218 n)))
 (let ((?x587 (stack_s x_0 x_SLOAD_0 w_2 w_3 2 n)))
 (let ((?x2330 (stack_s x_0 x_SLOAD_0 w_2 w_3 3 n)))
 (or (= ?x2330 ?x587) $x9956))))))
 ))
 (let ((?x275 (sc_s 3)))
 (let (($x5768 (= ?x275 (bvadd (_ bv1 6) (sc_s 2)))))
 (let ((?x1758 (used_gas_s x_0 x_SLOAD_0 w_2 w_3 3)))
 (let (($x9789 (= $x247 (or (exc_halt_s 1) (not (bvsle (_ bv0 6) (bvadd (_ bv63 6) (sc_s 1))))))))
 (let (($x3835 (forall ((w (_ BitVec 256)) )(let ((?x7795 (storage_s x_0 x_SLOAD_0 w_2 w_3 1 w)))
 (let ((?x7348 (storage_s x_0 x_SLOAD_0 w_2 w_3 2 w)))
 (= ?x7348 ?x7795))))
 ))
 (let (($x10317 (forall ((n (_ BitVec 6)) )(let ((?x6062 (stack_s x_0 x_SLOAD_0 w_2 w_3 1 n)))
 (let ((?x587 (stack_s x_0 x_SLOAD_0 w_2 w_3 2 n)))
 (let ((?x154 (sc_s 1)))
 (let ((?x4271 (bvadd (_ bv63 6) ?x154)))
 (let (($x3365 (bvsle ?x4271 n)))
 (or $x3365 (= ?x587 ?x6062))))))))
 ))
 (let ((?x154 (sc_s 1)))
 (let ((?x218 (sc_s 2)))
 (let (($x3301 (= ?x218 ?x154)))
 (let ((?x3769 (used_gas_s x_0 x_SLOAD_0 w_2 w_3 2)))
 (let ((?x4271 (bvadd (_ bv63 6) ?x154)))
 (let ((?x8445 (stack_s x_0 x_SLOAD_0 w_2 w_3 1 ?x4271)))
 (let (($x5027 (= (stack_s x_0 x_SLOAD_0 w_2 w_3 2 (bvadd (_ bv63 6) ?x218)) (storage_s x_0 x_SLOAD_0 w_2 w_3 1 ?x8445))))
 (let (($x6478 (not (bvsle (_ bv0 6) (bvadd (_ bv63 6) ?x72)))))
 (let (($x3100 (not (= ((_ extract 6 6) (bvadd (_ bv1 7) (concat (_ bv0 1) ?x72))) (_ bv0 1)))))
 (let (($x189 (exc_halt_s 1)))
 (let (($x2444 (forall ((w (_ BitVec 256)) )(let ((?x6809 (storage_s x_0 x_SLOAD_0 w_2 w_3 0 w)))
 (let ((?x7795 (storage_s x_0 x_SLOAD_0 w_2 w_3 1 w)))
 (= ?x7795 ?x6809))))
 ))
 (let (($x9072 (forall ((n (_ BitVec 6)) )(let ((?x5955 (stack_s x_0 x_SLOAD_0 w_2 w_3 0 n)))
 (let ((?x6062 (stack_s x_0 x_SLOAD_0 w_2 w_3 1 n)))
 (let ((?x72 (sc_s 0)))
 (let ((?x7376 (bvadd (_ bv63 6) ?x72)))
 (let (($x2735 (bvsle ?x7376 n)))
 (or $x2735 (= ?x6062 ?x5955))))))))
 ))
 (let (($x9024 (= ?x154 (bvadd (_ bv1 6) ?x72))))
 (let ((?x7376 (bvadd (_ bv63 6) ?x72)))
 (let ((?x9657 (stack_s x_0 x_SLOAD_0 w_2 w_3 0 ?x7376)))
 (let (($x8404 (forall ((w (_ BitVec 256)) )(let (($x6785 (= w (stack_s x_0 x_SLOAD_0 w_2 w_3 1 (bvadd (_ bv63 6) (sc_s 1))))))
 (let ((?x6809 (storage_s x_0 x_SLOAD_0 w_2 w_3 0 w)))
 (= ?x6809 (ite $x6785 x_SLOAD_0 (_ bv0 256))))))
 ))
 (let (($x11806 (= ?x4600 0)))
 (let (($x7461 (not $x57)))
 (let (($x5474 (= (stack_s x_0 x_SLOAD_0 w_2 w_3 0 (_ bv0 6)) x_0)))
 (let (($x7315 (= ?x72 (_ bv1 6))))
 (and $x7315 $x5474 $x7461 $x11806 $x8404 (= ?x8445 ?x9657) (= (stack_s x_0 x_SLOAD_0 w_2 w_3 1 ?x7376) ?x9657) (= (used_gas_s x_0 x_SLOAD_0 w_2 w_3 1) (+ 3 ?x4600)) $x9024 $x9072 $x2444 (= $x189 (or $x57 $x3100 $x6478)) $x5027 (= ?x3769 (+ 200 (used_gas_s x_0 x_SLOAD_0 w_2 w_3 1))) $x3301 $x10317 $x3835 $x9789 (= (stack_s x_0 x_SLOAD_0 w_2 w_3 3 ?x218) w_2) (= ?x1758 (+ 3 ?x3769)) $x5768 $x10467 $x9717 $x10157 (= (stack_s x_0 x_SLOAD_0 w_2 w_3 4 ?x275) w_3) (= ?x1564 (+ 3 ?x1758)) $x8307 $x4206 $x5236 $x6234 (= ?x1876 (stack_s x_0 x_SLOAD_0 w_2 w_3 4 (bvadd (_ bv62 6) ?x4305))) (= ?x6680 (stack_s x_0 x_SLOAD_0 w_2 w_3 4 (bvadd (_ bv63 6) ?x4305))) (= ?x4583 (+ 3 ?x1564)) $x5658 $x10745 $x401 $x7552 $x11326 (= (stack_s x_0 x_SLOAD_0 w_2 w_3 6 (bvadd (_ bv61 6) ?x926)) ?x1876) (= (stack_s x_0 x_SLOAD_0 w_2 w_3 6 (bvadd (_ bv62 6) ?x926)) ?x6680) $x7158 $x8485 $x7291 $x4323 $x11630 (= (stack_t x_0 x_SLOAD_0 w_2 w_3 1 ?x63) w_2) (= (used_gas_t x_0 x_SLOAD_0 w_2 w_3 1) (+ 3 ?x3774)) $x1385 $x5219 $x9435 $x10110 (= (stack_t x_0 x_SLOAD_0 w_2 w_3 2 ?x7154) w_3) (= ?x175 (+ 3 (used_gas_t x_0 x_SLOAD_0 w_2 w_3 1))) $x3007 $x516 $x592 $x5303 (= ?x1509 ?x2392) (= (stack_t x_0 x_SLOAD_0 w_2 w_3 3 ?x530) ?x2392) $x7130 $x5636 (= ?x10348 (+ 3 ?x175)) $x1004 $x2963 $x630 (= $x6783 (or $x367 $x2163 (not (bvsle (_ bv0 6) ?x530)))) $x8707 $x4628 $x5079 $x3133 $x7491 $x584 $x73 $x4328 $x58 $x2169 $x2590 (not (and $x7899 $x3839 $x4404 $x4350)))))))))))))))))))))))))))))))))))))))))))))))))))))))))))))))))))))))))))))))))))))))))))))))))))))))))))))))))
 )
(check-sat)
(get-proof)
